
Gurobi 11.0.0 (linux64) logging started Tue Sep 17 05:03:52 2024

Set parameter LogFile to value "gurobi.log"
Set parameter InfUnbdInfo to value 1
Gurobi Optimizer version 11.0.0 build v11.0.0rc2 (linux64 - "Ubuntu 22.04.4 LTS")

CPU model: AMD EPYC 7V13 64-Core Processor, instruction set [SSE2|AVX|AVX2]
Thread count: 128 physical cores, 128 logical processors, using up to 32 threads

Optimize a model with 31 rows, 340 columns and 104 nonzeros
Model fingerprint: 0x398317c7
Model has 334 quadratic constraints
Model has 2 general constraints
Variable types: 93 continuous, 247 integer (0 binary)
Coefficient statistics:
  Matrix range     [1e+00, 5e+04]
  QMatrix range    [1e+00, 5e+04]
  QLMatrix range   [1e+00, 5e+04]
  Objective range  [1e+00, 1e+00]
  Bounds range     [1e+00, 5e+11]
  RHS range        [1e+00, 1e+00]
  QRHS range       [1e+00, 2e+06]
Warning: Model contains large bounds
         Consider reformulating model or setting NumericFocus parameter
         to avoid numerical issues.
Using branch priorities (all 0).
Presolve added 95 rows and 38 columns
Presolve time: 0.01s
Presolved: 1224 rows, 542 columns, 3274 nonzeros
Presolved model has 28 SOS constraint(s)
Presolved model has 198 bilinear constraint(s)
Warning: Model contains variables with very large bounds participating
         in product terms.
         Presolve was not able to compute smaller bounds for these variables.
         Consider bounding these variables or reformulating the model.


Solving non-convex MIQCP

Variable types: 171 continuous, 371 integer (165 binary)

Root relaxation: objective 6.020207e+03, 190 iterations, 0.00 seconds (0.00 work units)

    Nodes    |    Current Node    |     Objective Bounds      |     Work
 Expl Unexpl |  Obj  Depth IntInf | Incumbent    BestBd   Gap | It/Node Time

     0     0 6020.20650    0   97          - 6020.20650      -     -    0s
     0     0 6020.20650    0   91          - 6020.20650      -     -    0s
H    0     0                    194653.00000 6020.20650  96.9%     -    0s
     0     0 6032.84588    0  120 194653.000 6032.84588  96.9%     -    0s
     0     0 6032.84588    0  117 194653.000 6032.84588  96.9%     -    0s
H    0     0                    130560.00000 6110.44588  95.3%     -    0s
     0     0 6110.44588    0  107 130560.000 6110.44588  95.3%     -    0s
     0     0 6233.41664    0  126 130560.000 6233.41664  95.2%     -    0s
     0     0 6234.27643    0  125 130560.000 6234.27643  95.2%     -    0s
H    0     0                    106560.00000 6234.27643  94.1%     -    0s
     0     0 6234.27643    0  107 106560.000 6234.27643  94.1%     -    0s
H    0     0                    34387.263709 6234.27643  81.9%     -    0s
     0     0 6235.26320    0  142 34387.2637 6235.26320  81.9%     -    0s
     0     0 6235.26320    0   66 34387.2637 6235.26320  81.9%     -    0s
     0     0 6235.26320    0  101 34387.2637 6235.26320  81.9%     -    0s
     0     0 6235.26320    0   99 34387.2637 6235.26320  81.9%     -    0s
     0     0 6235.26320    0  101 34387.2637 6235.26320  81.9%     -    0s
     0     0 6235.26320    0   95 34387.2637 6235.26320  81.9%     -    0s
     0     0 6235.26320    0   93 34387.2637 6235.26320  81.9%     -    0s
     0     0 6235.26320    0  122 34387.2637 6235.26320  81.9%     -    0s
     0     0 6241.97198    0   98 34387.2637 6241.97198  81.8%     -    0s
     0     0 6241.97198    0   94 34387.2637 6241.97198  81.8%     -    0s
     0     0 6247.88491    0   89 34387.2637 6247.88491  81.8%     -    0s
H    0     0                    30387.263709 6249.80457  79.4%     -    0s
     0     0 6249.80457    0   88 30387.2637 6249.80457  79.4%     -    0s
     0     0 6249.80457    0   88 30387.2637 6249.80457  79.4%     -    0s
H    0     0                    26175.000000 6249.80457  76.1%     -    0s
     0     0 6378.56588    0   95 26175.0000 6378.56588  75.6%     -    0s
     0     0 6378.65166    0   94 26175.0000 6378.65166  75.6%     -    0s
H    0     0                    24175.000000 6478.00890  73.2%     -    0s
     0     0 6478.00899    0   89 24175.0000 6478.00899  73.2%     -    0s
     0     0 6619.92342    0  128 24175.0000 6619.92342  72.6%     -    0s
     0     0 8146.11427    0   93 24175.0000 8146.11427  66.3%     -    0s
H    0     0                    24055.000000 8148.10787  66.1%     -    0s
H    0     0                    20055.000000 8148.10787  59.4%     -    0s
     0     0 8148.10787    0  106 20055.0000 8148.10787  59.4%     -    0s
     0     0 8164.23248    0   81 20055.0000 8164.23248  59.3%     -    1s
     0     0 8164.23248    0   73 20055.0000 8164.23248  59.3%     -    1s
     0     0 8164.23248    0   78 20055.0000 8164.23248  59.3%     -    1s
H    0     0                    19055.000000 8164.23248  57.2%     -    1s
     0     0 8164.23248    0   54 19055.0000 8164.23248  57.2%     -    1s
     0     0 8164.23248    0   74 19055.0000 8164.23248  57.2%     -    1s
     0     0 8172.76168    0   68 19055.0000 8172.76168  57.1%     -    1s
     0     0 8284.70087    0   67 19055.0000 8284.70087  56.5%     -    1s
     0     0 8294.46700    0   67 19055.0000 8294.46700  56.5%     -    1s
     0     0 8294.46700    0   67 19055.0000 8294.46700  56.5%     -    1s
     0     0 8338.33957    0   64 19055.0000 8338.33957  56.2%     -    1s
     0     0 8372.74153    0   63 19055.0000 8372.74153  56.1%     -    1s
     0     0 8429.89932    0   64 19055.0000 8429.89932  55.8%     -    1s
     0     0 8429.89932    0   71 19055.0000 8429.89932  55.8%     -    1s
     0     0 8429.89932    0   67 19055.0000 8429.89932  55.8%     -    1s
     0     0 8431.22382    0   93 19055.0000 8431.22382  55.8%     -    1s
H    0     0                    18698.981113 8431.22382  54.9%     -    2s
     0     0 8514.15228    0   65 18698.9811 8514.15228  54.5%     -    2s
     0     0 8514.15228    0   70 18698.9811 8514.15228  54.5%     -    2s
H    0     0                    18523.981113 8514.15228  54.0%     -    2s
     0     0 8514.15228    0   62 18523.9811 8514.15228  54.0%     -    2s
H    0     0                    18403.981113 8514.15228  53.7%     -    2s
     0     0 8582.05503    0   72 18403.9811 8582.05503  53.4%     -    2s
     0     0 8601.12789    0   72 18403.9811 8601.12789  53.3%     -    2s
     0     0 8619.51244    0   72 18403.9811 8619.51244  53.2%     -    2s
     0     0 8630.15228    0   73 18403.9811 8630.15228  53.1%     -    2s
     0     0 8641.81894    0   79 18403.9811 8641.81894  53.0%     -    2s
     0     0 8650.15228    0   39 18403.9811 8650.15228  53.0%     -    2s
     0     0 8666.81894    0   75 18403.9811 8666.81894  52.9%     -    2s
     0     0 8675.70783    0   74 18403.9811 8675.70783  52.9%     -    2s
     0     0 8680.15228    0   74 18403.9811 8680.15228  52.8%     -    2s
     0     0 8694.13962    0   74 18403.9811 8694.13962  52.8%     -    2s
     0     0 8710.43006    0   56 18403.9811 8710.43006  52.7%     -    2s
     0     0 8710.43006    0   49 18403.9811 8710.43006  52.7%     -    2s
     0     0 8710.43006    0   65 18403.9811 8710.43006  52.7%     -    2s
     0     0 8710.43006    0   70 18403.9811 8710.43006  52.7%     -    3s
     0     0 8710.43006    0   74 18403.9811 8710.43006  52.7%     -    3s
     0     0 8710.43006    0   75 18403.9811 8710.43006  52.7%     -    3s
     0     0 8710.43006    0   70 18403.9811 8710.43006  52.7%     -    3s
     0     0 8710.43006    0   66 18403.9811 8710.43006  52.7%     -    3s
     0     0 8710.43006    0   65 18403.9811 8710.43006  52.7%     -    3s
     0     0 8710.43006    0   65 18403.9811 8710.43006  52.7%     -    3s
     0     0 8710.43006    0   65 18403.9811 8710.43006  52.7%     -    3s
     0     0 8710.43006    0   65 18403.9811 8710.43006  52.7%     -    3s
H    0     0                    18403.980074 8710.43006  52.7%     -    3s
     0     0 8710.43006    0   65 18403.9801 8710.43006  52.7%     -    3s
     0     0 8710.43006    0   65 18403.9801 8710.43006  52.7%     -    3s
     0     0 8710.43006    0   64 18403.9801 8710.43006  52.7%     -    3s
     0     2 8710.43006    0   64 18403.9801 8710.43006  52.7%     -    3s
H  331    38                    17649.648820 8710.43006  50.6%   8.2    4s
H  333    38                    17599.648820 8710.43006  50.5%   8.1    4s
*  334    38              14    17539.648820 8710.43006  50.3%   8.1    4s

Cutting planes:
  Gomory: 2
  Cover: 1
  Implied bound: 18
  MIR: 36
  StrongCG: 1
  Flow cover: 3
  Inf proof: 1
  RLT: 26
  Relax-and-lift: 15

Explored 670 nodes (6803 simplex iterations) in 4.34 seconds (0.30 work units)
Thread count was 32 (of 128 available processors)

Solution count 10: 17539.6 17599.6 17649.6 ... 24175

Optimal solution found (tolerance 1.00e-10)
Warning: max constraint violation (4.6366e-04) exceeds tolerance
Warning: max general constraint violation (4.6366e-04) exceeds tolerance
Best objective 1.753964882018e+04, best bound 1.753964882018e+04, gap 0.0000%

Gurobi 11.0.0 (linux64) logging started Tue Sep 17 05:22:42 2024

Set parameter LogFile to value "gurobi.log"
Set parameter InfUnbdInfo to value 1
Gurobi Optimizer version 11.0.0 build v11.0.0rc2 (linux64 - "Ubuntu 22.04.4 LTS")

CPU model: AMD EPYC 7V13 64-Core Processor, instruction set [SSE2|AVX|AVX2]
Thread count: 128 physical cores, 128 logical processors, using up to 32 threads

Optimize a model with 31 rows, 342 columns and 104 nonzeros
Model fingerprint: 0x8ef91c23
Model has 336 quadratic constraints
Model has 2 general constraints
Variable types: 94 continuous, 248 integer (0 binary)
Coefficient statistics:
  Matrix range     [1e+00, 5e+04]
  QMatrix range    [1e+00, 5e+04]
  QLMatrix range   [1e+00, 5e+04]
  Objective range  [1e+00, 1e+00]
  Bounds range     [1e+00, 5e+11]
  RHS range        [1e+00, 1e+00]
  QRHS range       [1e+00, 2e+06]
Warning: Model contains large bounds
         Consider reformulating model or setting NumericFocus parameter
         to avoid numerical issues.
Using branch priorities (all 0).
Presolve added 96 rows and 38 columns
Presolve time: 0.01s
Presolved: 1229 rows, 544 columns, 3292 nonzeros
Presolved model has 28 SOS constraint(s)
Presolved model has 198 bilinear constraint(s)
Warning: Model contains variables with very large bounds participating
         in product terms.
         Presolve was not able to compute smaller bounds for these variables.
         Consider bounding these variables or reformulating the model.


Solving non-convex MIQCP

Variable types: 172 continuous, 372 integer (165 binary)

Root relaxation: objective 6.020207e+03, 193 iterations, 0.00 seconds (0.00 work units)

    Nodes    |    Current Node    |     Objective Bounds      |     Work
 Expl Unexpl |  Obj  Depth IntInf | Incumbent    BestBd   Gap | It/Node Time

     0     0 6020.20650    0   81          - 6020.20650      -     -    0s
     0     0 6020.20650    0   84          - 6020.20650      -     -    0s
H    0     0                    70105.000000 6020.20650  91.4%     -    0s
H    0     0                    64105.000000 6020.20650  90.6%     -    0s
     0     0 6032.85089    0  113 64105.0000 6032.85089  90.6%     -    0s
     0     0 6032.85089    0  101 64105.0000 6032.85089  90.6%     -    0s
     0     0 6032.85089    0  100 64105.0000 6032.85089  90.6%     -    0s
H    0     0                    44105.000000 6110.45089  86.1%     -    0s
     0     0 6110.45089    0  100 44105.0000 6110.45089  86.1%     -    0s
     0     0 6233.41820    0  125 44105.0000 6233.41820  85.9%     -    0s
     0     0 6233.41820    0   70 44105.0000 6233.41820  85.9%     -    0s
     0     0 6233.41820    0  100 44105.0000 6233.41820  85.9%     -    0s
     0     0 6233.41820    0  100 44105.0000 6233.41820  85.9%     -    0s
     0     0 6233.41820    0   96 44105.0000 6233.41820  85.9%     -    0s
     0     0 6233.41820    0   98 44105.0000 6233.41820  85.9%     -    0s
     0     0 6233.41820    0   97 44105.0000 6233.41820  85.9%     -    0s
     0     0 6233.48700    0  110 44105.0000 6233.48700  85.9%     -    0s
     0     0 6240.41820    0  103 44105.0000 6240.41820  85.9%     -    0s
     0     0 6240.41820    0   84 44105.0000 6240.41820  85.9%     -    0s
H    0     0                    44055.000000 6372.58487  85.5%     -    0s
     0     0 6372.58487    0   84 44055.0000 6372.58487  85.5%     -    0s
     0     0 8033.41820    0   83 44055.0000 8033.41820  81.8%     -    0s
H    0     0                    34105.000000 8033.41820  76.4%     -    0s
     0     0 8034.28163    0  102 34105.0000 8034.28163  76.4%     -    0s
     0     0 8034.28163    0   83 34105.0000 8034.28163  76.4%     -    0s
     0     0 8034.28163    0   76 34105.0000 8034.28163  76.4%     -    0s
     0     0 8034.58766    0   96 34105.0000 8034.58766  76.4%     -    0s
H    0     0                    19105.000000 8034.58766  57.9%     -    0s
     0     0 8052.17608    0  104 19105.0000 8052.17608  57.9%     -    0s
     0     0 8052.17608    0  103 19105.0000 8052.17608  57.9%     -    0s
     0     0 8059.47811    0   98 19105.0000 8059.47811  57.8%     -    0s
     0     0 8059.47811    0   97 19105.0000 8059.47811  57.8%     -    0s
     0     0 8332.74027    0   97 19105.0000 8332.74027  56.4%     -    0s
     0     0 8332.74027    0   96 19105.0000 8332.74027  56.4%     -    0s
     0     0 8444.33357    0   84 19105.0000 8444.33357  55.8%     -    0s
     0     0 8547.97891    0   59 19105.0000 8547.97891  55.3%     -    0s
     0     0 8585.28142    0   23 19105.0000 8585.28142  55.1%     -    0s
     0     0 8720.78101    0   37 19105.0000 8720.78101  54.4%     -    0s
     0     0 8790.88006    0   57 19105.0000 8790.88006  54.0%     -    0s
     0     0 8835.71990    0   64 19105.0000 8835.71990  53.8%     -    0s
     0     0 8902.77099    0   67 19105.0000 8902.77099  53.4%     -    1s
     0     0 9123.66817    0   64 19105.0000 9123.66817  52.2%     -    1s
     0     0 9132.69172    0   67 19105.0000 9132.69172  52.2%     -    1s
     0     0 9169.60509    0   66 19105.0000 9169.60509  52.0%     -    1s
     0     0 9178.48224    0   69 19105.0000 9178.48224  52.0%     -    1s
     0     0 9216.78745    0   69 19105.0000 9216.78745  51.8%     -    1s
     0     0 9230.33861    0   71 19105.0000 9230.33861  51.7%     -    1s
     0     0 9407.00000    0   71 19105.0000 9407.00000  50.8%     -    1s
     0     0 9432.93821    0   71 19105.0000 9432.93821  50.6%     -    1s
     0     0 9584.46797    0   87 19105.0000 9584.46797  49.8%     -    1s
     0     0 9954.11071    0   87 19105.0000 9954.11071  47.9%     -    1s
H    0     0                    19054.660371 9954.11071  47.8%     -    1s
     0     0 10333.1610    0  101 19054.6604 10333.1610  45.8%     -    1s
     0     0 10677.6528    0   99 19054.6604 10677.6528  44.0%     -    1s
     0     0 10807.0000    0   99 19054.6604 10807.0000  43.3%     -    1s
     0     0 10839.4709    0   80 19054.6604 10839.4709  43.1%     -    1s
     0     0 10917.3790    0   75 19054.6604 10917.3790  42.7%     -    1s
     0     0 11006.3998    0   89 19054.6604 11006.3998  42.2%     -    1s
     0     0 11289.2657    0   85 19054.6604 11289.2657  40.8%     -    1s
     0     0 11505.7074    0   89 19054.6604 11505.7074  39.6%     -    1s
     0     0 11549.7738    0   95 19054.6604 11549.7738  39.4%     -    1s
     0     0 11584.7069    0   97 19054.6604 11584.7069  39.2%     -    1s
     0     0 12189.0338    0   92 19054.6604 12189.0338  36.0%     -    1s
     0     0 12322.9936    0   95 19054.6604 12322.9936  35.3%     -    1s
     0     0 12664.4204    0   97 19054.6604 12664.4204  33.5%     -    1s
     0     0 12844.2424    0   88 19054.6604 12844.2424  32.6%     -    1s
     0     0 12981.7444    0   88 19054.6604 12981.7444  31.9%     -    1s
     0     0 13340.5677    0   89 19054.6604 13340.5677  30.0%     -    1s
     0     0 14022.4813    0   86 19054.6604 14022.4813  26.4%     -    1s
     0     0 14371.5499    0   86 19054.6604 14371.5499  24.6%     -    1s
     0     0 14546.7136    0   87 19054.6604 14546.7136  23.7%     -    1s
     0     2 14546.7136    0   85 19054.6604 14546.7136  23.7%     -    1s
H   33    19                    19054.660185 14546.7136  23.7%  25.8    2s
H   92    50                    18079.648820 14546.7136  19.5%  26.7    2s
H  168    69                    17899.648820 14546.7136  18.7%  20.8    2s

Cutting planes:
  Gomory: 1
  Cover: 1
  Implied bound: 28
  Clique: 1
  MIR: 47
  StrongCG: 1
  Flow cover: 6
  RLT: 27
  Relax-and-lift: 14

Explored 759 nodes (8327 simplex iterations) in 2.46 seconds (0.31 work units)
Thread count was 32 (of 128 available processors)

Solution count 10: 17899.6 18079.6 19054.7 ... 64105

Optimal solution found (tolerance 1.00e-10)
Warning: max constraint violation (4.6366e-04) exceeds tolerance
Warning: max general constraint violation (4.6366e-04) exceeds tolerance
Best objective 1.789964882018e+04, best bound 1.789964882018e+04, gap 0.0000%
